
Gurobi 6.5.2 (win64) logging started 07/24/16 17:34:33


Gurobi 6.5.2 (win64) logging started 07/24/16 17:34:33

Optimize a model with 2720 rows, 712 columns and 6921 nonzeros
Coefficient statistics:
  Matrix range    [6e-08, 1e+03]
  Objective range [1e+00, 1e+00]
  Bounds range    [1e+00, 1e+00]
  RHS range       [6e-06, 2e+03]
Presolve removed 2486 rows and 467 columns
Presolve time: 0.00s
Presolved: 234 rows, 245 columns, 1024 nonzeros
Variable types: 245 continuous, 0 integer (0 binary)

Root relaxation: objective 1.936056e+01, 240 iterations, 0.02 seconds

    Nodes    |    Current Node    |     Objective Bounds      |     Work
 Expl Unexpl |  Obj  Depth IntInf | Incumbent    BestBd   Gap | It/Node Time

*    0     0               0      19.3605578   19.36056  0.00%     -    0s

Explored 0 nodes (240 simplex iterations) in 0.02 seconds
Thread count was 8 (of 8 available processors)

Optimal solution found (tolerance 1.00e-04)
Best objective 1.936055779718e+01, best bound 1.936055779718e+01, gap 0.0%

Wrote requested result file 'H1\instance18\\Results18EC_Sol3.lp'

